955201
955201
955201
945523
945523
943441
943441
935365
935365
935365
903363
903363
903363
903363
888578
888578
888578
888578
888578
888578
888578
886156
867759
867759
867759
861575
824267
824267
824267
824267
824267
823778
823695
791434
791434
791434
791434
791434
791434
790457
790457
790457
790457
790457
782660
782660
782660
782660
777530
777530
777530
777530
777530
777530
777530
777530
777530
773470
770365
770365
761528
761528
738108
738108
738108
738108
738108
738108
738108
738108
736830
736830
736830
731856
731856
731856
731856
729350
718402
718402
718402
718402
718402
718402
718402
718052
718052
718052
718052
716506
707169
696759
672779
672779
672779
672779
672779
672779
672779
672779
